(set-logic ALL)
(set-option :produce-models true)
(declare-sort BoundSet 0)
(declare-sort UnboundSet 0)
(set-option :finite-model-find true)
(declare-fun IsProponentOfManMadeClimateChangeTheories (BoundSet) Bool)
(declare-fun IsArrogant (BoundSet) Bool)
(declare-fun IsZealous (BoundSet) Bool)
(declare-fun IsViewedAs (BoundSet BoundSet) Bool)
(declare-fun IsByProponentsOf (BoundSet BoundSet) Bool)
(assert (not (=> (exists ((a BoundSet)) (and (IsProponentOfManMadeClimateChangeTheories a) (and (IsArrogant a) (IsZealous a)))) (exists ((b BoundSet)) (exists ((a BoundSet)) (exists ((c BoundSet)) (exists ((d BoundSet)) (and (IsViewedAs b c) (IsByProponentsOf a d)))))))))
(check-sat)
(get-model)